NAME : zqloutput/eax-hard-simple-rescaleandround/50-4.tsp
TYPE : TSP
DIMENSION : 50
EDGE_WEIGHT_TYPE : EUC_2D
NODE_COORD_SECTION
1 625383 936427
2 949245 172020
3 750837 27053
4 54296 945143
5 198759 61636
6 107693 671577
7 532261 331441
8 742156 679601
9 423934 27087
10 53789 360673
11 438563 461653
12 761571 14251
13 885451 351970
14 977399 155700
15 751647 325199
16 354326 431071
17 910040 360274
18 916617 405416
19 213702 375959
20 383439 740686
21 962313 402341
22 257754 781438
23 136287 257411
24 12448 476715
25 604824 540935
26 772553 766437
27 207555 285577
28 596790 540076
29 227607 739807
30 827390 908961
31 939129 722470
32 951093 563014
33 696656 282840
34 908425 438681
35 668629 84233
36 412305 943575
37 760534 766968
38 365584 481685
39 889960 764639
40 580279 738379
41 194087 785949
42 720948 295425
43 504306 66893
44 702122 140280
45 232102 91152
46 303624 878072
47 901879 256899
48 458070 93763
49 826523 977633
50 384394 730441
EOF
